CHStone/bak/sha/lp.mps
*<meta creator='lp_solve v5.5'>
*<meta rows=33>
*<meta columns=26>
*<meta equalities=0>
*<meta integers=0>
*<meta origsense='MIN'>
*
NAME                  
ROWS
 N  R0      
 G  R1      
 G  R2      
 G  R3      
 G  R4      
 G  R5      
 G  R6      
 G  R7      
 G  R8      
 G  R9      
 G  R10     
 G  R11     
 G  R12     
 G  R13     
 G  R14     
 G  R15     
 G  R16     
 G  R17     
 G  R18     
 G  R19     
 G  R20     
 G  R21     
 G  R22     
 G  R23     
 G  R24     
 G  R25     
 G  R26     
 G  R27     
 G  R28     
 G  R29     
 G  R30     
 G  R31     
 G  R32     
 G  R33     
COLUMNS
    C1        R0        1.0000000000   R16       -1.000000000
    C1        R28       1.0000000000
    C2        R0        1.0000000000   R9        -1.000000000
    C2        R28       -1.000000000   R29       1.0000000000
    C3        R0        1.0000000000   R6        -1.000000000
    C3        R29       -1.000000000   R32       1.0000000000
    C4        R0        1.0000000000   R7        -1.000000000
    C4        R8        -1.000000000   R21       -1.000000000
    C4        R22       -1.000000000   R30       1.0000000000
    C5        R0        1.0000000000   R2        -1.000000000
    C5        R3        -1.000000000   R30       -1.000000000
    C5        R31       1.0000000000
    C6        R0        1.0000000000   R1        -1.000000000
    C6        R25       -1.000000000   R33       1.0000000000
    C7        R0        1.0000000000   R1        1.0000000000
    C7        R13       -1.000000000
    C8        R0        1.0000000000
    C9        R0        1.0000000000   R2        1.0000000000
    C9        R4        -1.000000000
    C10       R0        1.0000000000   R3        1.0000000000
    C10       R5        -1.000000000
    C11       R0        1.0000000000   R4        1.0000000000
    C11       R5        1.0000000000   R14       -1.000000000
    C12       R0        1.0000000000   R6        1.0000000000
    C12       R7        1.0000000000   R12       -1.000000000
    C13       R0        1.0000000000   R8        1.0000000000
    C13       R10       -1.000000000
    C14       R0        1.0000000000   R9        1.0000000000
    C14       R10       1.0000000000   R11       -1.000000000
    C15       R0        1.0000000000   R11       1.0000000000
    C15       R12       1.0000000000   R18       -1.000000000
    C16       R0        1.0000000000   R13       1.0000000000
    C16       R20       -1.000000000
    C17       R0        1.0000000000   R14       1.0000000000
    C17       R15       -1.000000000
    C18       R0        1.0000000000   R15       1.0000000000
    C18       R16       1.0000000000   R17       -1.000000000
    C19       R0        1.0000000000   R17       1.0000000000
    C19       R18       1.0000000000   R19       -1.000000000
    C20       R0        1.0000000000   R19       1.0000000000
    C20       R20       1.0000000000   R31       -1.000000000
    C21       R0        1.0000000000   R21       1.0000000000
    C21       R23       -1.000000000
    C22       R0        1.0000000000   R22       1.0000000000
    C22       R24       -1.000000000
    C23       R0        1.0000000000   R23       1.0000000000
    C23       R24       1.0000000000   R32       -1.000000000
    C24       R0        1.0000000000   R25       1.0000000000
    C24       R26       -1.000000000   R33       -1.000000000
    C25       R0        1.0000000000   R26       1.0000000000
    C25       R27       -1.000000000
    C26       R0        1.0000000000   R27       1.0000000000
RHS
    RHS       R20       1.0000000000   R26       1.0000000000
    RHS       R28       -1.000000000   R29       -1.000000000
    RHS       R30       -1.000000000   R32       -1.000000000
ENDATA
